(set-logic ALL)
(declare-const string1_VAR String)
(declare-const string2_VAR String)
(assert (not (< 0 (str.len string1_VAR))))
(assert (< 0 (str.len string2_VAR)))
(assert (> (str.len string2_VAR) 0))
(assert (< 1 (str.len string2_VAR)))
(assert (> (str.len string2_VAR) 1))
(assert (< 2 (str.len string2_VAR)))
(assert (not (> (str.len string2_VAR) 2)))
(check-sat)
(get-value (string1_VAR))
(get-value (string2_VAR))
